Route #1: 128 18 150 90 15 2 56 61 22 10 28 118 98 78 162
Route #2: 73 136 160 148 122 86 161 85 123 108 134 139 127 140 16
Route #3: 30 11 106 145 120 142 116 157 60
Route #4: 104 41 113 158 31 119 83 3 110 149 135 125 129 111 154 144
Route #5: 156 93 126 94 133 88 5 102 152 147 40 138 109 159 92 137
Route #6: 24 25 50 7 14 72 38 132 58 33 17 6 121 82 75
Route #7: 51 46 153 29 27 49 12 74 39 59 69 146 91 151
Route #8: 54 87 131 100 36 37 95 101 67 57 124 44 143 103 117 53
Route #9: 55 79 21 68 63 115 96 130 97 89 107 32 141 155 112 81
Route #10: 9 77 42 62 47 70 66 43 52 4 34 76 45 8 35
Route #11: 26 48 99 84 105 64 114 71 13 65 19 20 23 80
